Geographic Exponential Decay
80 201 73 55 57 301 8 207 76 108 247 151 13 17 123 286 193 157 11 48 255 176 225 2 277 305 32 136 173 254 26 167 84 111 233 9 104 181 170 127 72 4 169 74 260 303 175 110 182 60 267 278 256 231 296 318 97 23 245 177 25 21 121 160 88 314 24 185 222 114 166 259 138 269 130 214 3 308 300 224 31
p edge 320 322
e 0 309 1.0
e 1 116 5.0
e 1 0 9.0
e 2 228 60.0
e 2 216 63.0
e 2 117 70.0
e 2 1 70.0
e 3 138 60.0
e 3 308 21.0
e 3 180 18.0
e 3 2 75.0
e 4 297 7.0
e 4 179 59.0
e 4 250 71.0
e 4 3 95.0
e 5 292 4.0
e 5 4 87.0
e 6 243 3.0
e 6 5 1.0
e 7 8 69.0
e 7 6 1.0
e 8 9 68.0
e 8 78 18.0
e 9 107 62.0
e 9 102 100.0
e 10 163 5.0
e 10 7 1.0
e 11 209 8.0
e 11 35 96.0
e 11 278 84.0
e 12 53 5.0
e 12 10 1.0
e 13 141 30.0
e 13 44 60.0
e 13 30 63.0
e 13 12 13.0
e 14 252 1.0
e 14 13 34.0
e 15 191 5.0
e 15 14 12.0
e 16 270 2.0
e 16 15 6.0
e 17 47 64.0
e 17 109 100.0
e 17 276 5.0
e 17 16 62.0
e 18 178 5.0
e 18 17 59.0
e 19 253 1.0
e 19 18 8.0
e 20 256 86.0
e 20 19 1.0
e 21 310 80.0
e 21 84 39.0
e 21 181 56.0
e 22 82 3.0
e 22 20 1.0
e 23 269 82.0
e 23 282 69.0
e 23 214 20.0
e 23 22 83.0
e 24 25 66.0
e 24 203 43.0
e 24 181 89.0
e 25 257 60.0
e 25 283 81.0
e 26 28 37.0
e 26 85 91.0
e 26 298 98.0
e 26 23 56.0
e 27 75 11.0
e 27 26 85.0
e 29 74 65.0
e 29 27 7.0
e 31 119 87.0
e 31 205 4.0
e 31 302 71.0
e 31 29 45.0
e 32 233 14.0
e 32 54 87.0
e 32 93 42.0
e 32 31 20.0
e 33 305 12.0
e 34 185 92.0
e 34 32 98.0
e 36 161 8.0
e 36 34 8.0
e 37 76 51.0
e 38 45 5.0
e 38 36 11.0
e 39 210 2.0
e 39 38 6.0
e 40 260 69.0
e 41 68 3.0
e 41 39 2.0
e 42 43 4.0
e 42 41 2.0
e 46 48 73.0
e 46 42 1.0
e 48 223 78.0
e 48 187 24.0
e 49 57 6.0
e 49 46 3.0
e 50 156 5.0
e 50 49 2.0
e 51 204 6.0
e 51 50 5.0
e 52 135 4.0
e 52 51 1.0
e 55 146 92.0
e 55 260 4.0
e 55 311 1.0
e 56 57 81.0
e 57 58 30.0
e 59 60 42.0
e 59 52 7.0
e 60 155 76.0
e 60 67 29.0
e 61 184 1.0
e 61 59 2.0
e 62 190 2.0
e 62 61 5.0
e 63 64 1.0
e 63 62 4.0
e 65 169 82.0
e 65 63 6.0
e 66 220 1.0
e 66 65 12.0
e 69 289 12.0
e 69 66 3.0
e 70 106 10.0
e 70 69 2.0
e 71 177 96.0
e 72 73 29.0
e 72 74 75.0
e 72 76 92.0
e 73 287 36.0
e 73 186 91.0
e 74 195 91.0
e 76 97 45.0
e 77 150 6.0
e 77 70 7.0
e 79 80 16.0
e 79 77 8.0
e 81 207 90.0
e 81 79 11.0
e 83 101 1.0
e 83 81 2.0
e 84 211 11.0
e 84 300 75.0
e 86 229 3.0
e 86 83 1.0
e 87 208 5.0
e 87 86 2.0
e 88 202 5.0
e 88 103 34.0
e 88 251 35.0
e 88 87 37.0
e 89 197 2.0
e 89 88 63.0
e 90 147 3.0
e 90 89 2.0
e 91 95 1.0
e 91 90 6.0
e 92 94 1.0
e 92 91 1.0
e 96 192 12.0
e 96 92 8.0
e 97 98 35.0
e 97 221 34.0
e 99 227 1.0
e 99 96 8.0
e 100 312 6.0
e 100 99 2.0
e 104 218 23.0
e 104 313 71.0
e 104 105 78.0
e 104 100 25.0
e 108 299 1.0
e 108 138 2.0
e 108 110 24.0
e 110 277 40.0
e 110 111 43.0
e 111 112 49.0
e 111 113 84.0
e 114 115 3.0
e 114 267 18.0
e 114 118 18.0
e 114 104 52.0
e 120 189 12.0
e 120 114 89.0
e 121 266 18.0
e 121 122 55.0
e 121 123 37.0
e 121 120 75.0
e 123 173 30.0
e 123 318 99.0
e 124 125 5.0
e 124 121 78.0
e 126 151 33.0
e 126 124 4.0
e 127 314 55.0
e 127 128 12.0
e 127 232 53.0
e 129 188 1.0
e 129 126 1.0
e 130 286 7.0
e 130 131 4.0
e 130 193 65.0
e 132 133 1.0
e 132 129 1.0
e 134 262 4.0
e 134 132 2.0
e 136 142 48.0
e 136 240 62.0
e 136 314 96.0
e 137 274 2.0
e 137 134 3.0
e 138 143 1.0
e 139 140 3.0
e 139 137 8.0
e 144 295 1.0
e 144 139 12.0
e 145 148 10.0
e 145 144 2.0
e 149 300 94.0
e 151 248 61.0
e 151 152 49.0
e 153 222 46.0
e 154 316 1.0
e 154 145 9.0
e 157 158 81.0
e 157 159 36.0
e 157 199 59.0
e 157 154 25.0
e 160 162 9.0
e 160 181 14.0
e 160 164 19.0
e 165 269 70.0
e 166 277 89.0
e 166 286 94.0
e 166 167 61.0
e 167 168 16.0
e 167 235 52.0
e 169 284 47.0
e 169 170 24.0
e 170 171 1.0
e 170 263 91.0
e 172 173 38.0
e 173 239 2.0
e 174 175 66.0
e 175 176 40.0
e 175 177 82.0
e 176 177 85.0
e 176 269 69.0
e 182 254 73.0
e 182 196 5.0
e 182 215 16.0
e 183 185 42.0
e 185 293 12.0
e 193 194 1.0
e 193 198 4.0
e 200 201 26.0
e 201 206 43.0
e 201 207 88.0
e 207 212 28.0
e 213 214 77.0
e 214 258 23.0
e 217 219 2.0
e 217 157 79.0
e 222 224 36.0
e 222 314 57.0
e 224 225 64.0
e 224 301 30.0
e 225 226 5.0
e 225 285 99.0
e 230 231 100.0
e 231 233 41.0
e 231 234 60.0
e 233 236 44.0
e 237 238 5.0
e 237 217 4.0
e 241 304 1.0
e 241 237 3.0
e 242 244 2.0
e 242 241 2.0
e 245 305 8.0
e 245 286 68.0
e 245 246 12.0
e 247 249 52.0
e 247 254 85.0
e 247 255 83.0
e 249 254 67.0
e 255 256 2.0
e 255 259 44.0
e 256 259 93.0
e 259 260 50.0
e 261 263 44.0
e 264 271 2.0
e 264 242 2.0
e 265 294 8.0
e 265 264 3.0
e 267 268 82.0
e 267 272 63.0
e 273 275 1.0
e 273 265 8.0
e 277 278 15.0
e 278 290 6.0
e 279 280 8.0
e 279 273 1.0
e 281 288 1.0
e 281 279 1.0
e 291 296 27.0
e 296 300 5.0
e 296 301 54.0
e 301 303 17.0
e 303 305 20.0
e 303 306 88.0
e 307 308 12.0
e 308 315 89.0
e 317 318 78.0
e 318 319 64.0
